data;
param n:=50;
param w:=1 203 2 -259 3 -143 4 165 5 -154 6 -16 7 -169 8 -230 9 -69 10 -181 11 -45 12 -82 13 124 14 25 15 114 16 -54 17 -130 18 -130 19 -73 20 -197 21 -60 22 -132 23 227 24 160 25 205 26 78 27 234 28 218 29 148 30 60 31 -90 32 19 33 -142 34 112 35 -135 36 -163 37 126 38 -186 39 -57 40 78 41 131 42 97 43 214 44 -153 45 139 46 -173 47 -8 48 230 49 219 50 -95;
